objective value:                           -7104.3203
x1                                                  1 	(obj:-100.548)
x13                                                 1 	(obj:-695.66)
x27                                                 1 	(obj:-61.0766)
x42                                                 1 	(obj:-29.135)
x51                                                 1 	(obj:-623.451)
x55                                                 1 	(obj:-92.8749)
x103                                                1 	(obj:-1526.93)
x155                                                1 	(obj:-131.82)
x156                                                1 	(obj:-67.682)
x165                                                1 	(obj:-153.619)
x184                                                1 	(obj:-656.596)
x265                                                1 	(obj:-184.08)
x332                                                1 	(obj:-721.473)
x396                                                1 	(obj:-32.3568)
x398                                                1 	(obj:-148.966)
x427                                                1 	(obj:-344.033)
x438                                                1 	(obj:-318.428)
x444                                                1 	(obj:-604.712)
x462                                                1 	(obj:-302.964)
x471                                                1 	(obj:-307.915)
